NAME: PointSet_Angle_55_6
TYPE: TSP
COMMENT: Points chosen discrete uniformly at random out of ${0, \ldots, 500}^2$.
DIMENSION: 55
EDGE_WEIGHT_TYPE: EUC_2D
NODE_COORD_SECTION
1 34 406
2 302 358
3 375 449
4 357 31
5 77 60
6 340 263
7 344 381
8 428 409
9 353 370
10 293 200
11 130 7
12 51 37
13 88 239
14 173 266
15 35 251
16 136 316
17 156 184
18 173 30
19 132 277
20 308 457
21 337 148
22 219 428
23 275 393
24 82 127
25 262 376
26 327 393
27 383 124
28 176 217
29 109 349
30 229 144
31 99 111
32 461 1
33 296 133
34 32 174
35 156 340
36 377 494
37 234 95
38 167 8
39 234 249
40 382 497
41 371 455
42 135 0
43 326 311
44 464 435
45 406 440
46 79 251
47 50 39
48 252 92
49 419 284
50 13 75
51 371 136
52 315 351
53 232 228
54 360 466
55 477 488
EOF
